TCS_Benchmarks/redos_fix/snort1_output_distinct_1953_1952_29_0.txt
((.|\n|\r)*)(\w+)
((.|\n|\r)*)(([sS][nN][aA][mM][eE]|[oO][nN][aA][mM][eE]|[gG][nN][aA][mM][eE])[\n\r\s]*=>[\n\r\s]*)(\w+)